p cnf 1350
-25 -417
-26 -420
-27 -423
-28 -426
-29 -429
-30 -432
-31 -435
-32 -438
-33 -441
-34 -444
-35 -447
-36 -450
-37 -453
-38 -456
-39 -459
-40 -462
-41 -465
-42 -468
-43 -471
-44 -474
-45 -477
-46 -480
-47 -483
-48 -486
-49 487
-50 488
-51 489
-52 490
-53 491
-54 -26
-54 -27
26 27 54
-55 -28
-55 -29
28 29 55
-56 -30
-56 -31
30 31 56
-57 -32
-57 -33
32 33 57
-58 -34
-58 -35
34 35 58
-59 -36
-59 -37
36 37 59
-60 -38
-60 -39
38 39 60
-61 -40
-61 -41
40 41 61
-62 -42
-62 -43
42 43 62
-63 -44
-63 -45
44 45 63
-64 -46
-64 -47
46 47 64
-65 -48
-65 -49
48 49 65
-66 -50
-66 -51
50 51 66
-67 -52
-67 -53
52 53 67
-68 54
-68 55
-54 -55 68
-69 56
-69 57
-56 -57 69
-70 58
-70 59
-58 -59 70
-71 60
-71 61
-60 -61 71
-72 62
-72 63
-62 -63 72
-73 64
-73 65
-64 -65 73
-74 66
-74 67
-66 -67 74
-75 68
-75 69
-68 -69 75
-76 70
-76 71
-70 -71 76
-77 72
-77 73
-72 -73 77
-78 75
-78 76
-75 -76 78
-79 74
-79 77
-74 -77 79
-80 78
-80 79
-78 -79 80
-81 -25
-81 26
25 -26 81
-82 25
-82 -26
-25 26 82
-83 -81
-83 -82
81 82 83
-84 25
-84 26
-25 -26 84
-85 -25
-85 -83
25 83 85
-86 25
-86 83
-25 -83 86
-87 -85
-87 -86
85 86 87
-88 25
-88 -83
-25 83 88
-89 -84
-89 -88
84 88 89
-90 -26
-90 27
26 -27 90
-91 26
-91 -27
-26 27 91
-92 -90
-92 -91
90 91 92
-93 26
-93 27
-26 -27 93
-94 89
-94 -92
-89 92 94
-95 -89
-95 92
89 -92 95
-96 -94
-96 -95
94 95 96
-97 -89
-97 -92
89 92 97
-98 -93
-98 -97
93 97 98
-99 -27
-99 28
27 -28 99
-100 27
-100 -28
-27 28 100
-101 -99
-101 -100
99 100 101
-102 27
-102 28
-27 -28 102
-103 98
-103 -101
-98 101 103
-104 -98
-104 101
98 -101 104
-105 -103
-105 -104
103 104 105
-106 -98
-106 -101
98 101 106
-107 -102
-107 -106
102 106 107
-108 -28
-108 29
28 -29 108
-109 28
-109 -29
-28 29 109
-110 -108
-110 -109
108 109 110
-111 28
-111 29
-28 -29 111
-112 107
-112 -110
-107 110 112
-113 -107
-113 110
107 -110 113
-114 -112
-114 -113
112 113 114
-115 -107
-115 -110
107 110 115
-116 -111
-116 -115
111 115 116
-117 -29
-117 30
29 -30 117
-118 29
-118 -30
-29 30 118
-119 -117
-119 -118
117 118 119
-120 29
-120 30
-29 -30 120
-121 116
-121 -119
-116 119 121
-122 -116
-122 119
116 -119 122
-123 -121
-123 -122
121 122 123
-124 -116
-124 -119
116 119 124
-125 -120
-125 -124
120 124 125
-126 -30
-126 31
30 -31 126
-127 30
-127 -31
-30 31 127
-128 -126
-128 -127
126 127 128
-129 30
-129 31
-30 -31 129
-130 125
-130 -128
-125 128 130
-131 -125
-131 128
125 -128 131
-132 -130
-132 -131
130 131 132
-133 -125
-133 -128
125 128 133
-134 -129
-134 -133
129 133 134
-135 -31
-135 32
31 -32 135
-136 31
-136 -32
-31 32 136
-137 -135
-137 -136
135 136 137
-138 31
-138 32
-31 -32 138
-139 134
-139 -137
-134 137 139
-140 -134
-140 137
134 -137 140
-141 -139
-141 -140
139 140 141
-142 -134
-142 -137
134 137 142
-143 -138
-143 -142
138 142 143
-144 -32
-144 33
32 -33 144
-145 32
-145 -33
-32 33 145
-146 -144
-146 -145
144 145 146
-147 32
-147 33
-32 -33 147
-148 143
-148 -146
-143 146 148
-149 -143
-149 146
143 -146 149
-150 -148
-150 -149
148 149 150
-151 -143
-151 -146
143 146 151
-152 -147
-152 -151
147 151 152
-153 -33
-153 34
33 -34 153
-154 33
-154 -34
-33 34 154
-155 -153
-155 -154
153 154 155
-156 33
-156 34
-33 -34 156
-157 152
-157 -155
-152 155 157
-158 -152
-158 155
152 -155 158
-159 -157
-159 -158
157 158 159
-160 -152
-160 -155
152 155 160
-161 -156
-161 -160
156 160 161
-162 -34
-162 35
34 -35 162
-163 34
-163 -35
-34 35 163
-164 -162
-164 -163
162 163 164
-165 34
-165 35
-34 -35 165
-166 161
-166 -164
-161 164 166
-167 -161
-167 164
161 -164 167
-168 -166
-168 -167
166 167 168
-169 -161
-169 -164
161 164 169
-170 -165
-170 -169
165 169 170
-171 -35
-171 36
35 -36 171
-172 35
-172 -36
-35 36 172
-173 -171
-173 -172
171 172 173
-174 35
-174 36
-35 -36 174
-175 170
-175 -173
-170 173 175
-176 -170
-176 173
170 -173 176
-177 -175
-177 -176
175 176 177
-178 -170
-178 -173
170 173 178
-179 -174
-179 -178
174 178 179
-180 -36
-180 37
36 -37 180
-181 36
-181 -37
-36 37 181
-182 -180
-182 -181
180 181 182
-183 36
-183 37
-36 -37 183
-184 179
-184 -182
-179 182 184
-185 -179
-185 182
179 -182 185
-186 -184
-186 -185
184 185 186
-187 -179
-187 -182
179 182 187
-188 -183
-188 -187
183 187 188
-189 -37
-189 38
37 -38 189
-190 37
-190 -38
-37 38 190
-191 -189
-191 -190
189 190 191
-192 37
-192 38
-37 -38 192
-193 188
-193 -191
-188 191 193
-194 -188
-194 191
188 -191 194
-195 -193
-195 -194
193 194 195
-196 -188
-196 -191
188 191 196
-197 -192
-197 -196
192 196 197
-198 -38
-198 39
38 -39 198
-199 38
-199 -39
-38 39 199
-200 -198
-200 -199
198 199 200
-201 38
-201 39
-38 -39 201
-202 197
-202 -200
-197 200 202
-203 -197
-203 200
197 -200 203
-204 -202
-204 -203
202 203 204
-205 -197
-205 -200
197 200 205
-206 -201
-206 -205
201 205 206
-207 -39
-207 40
39 -40 207
-208 39
-208 -40
-39 40 208
-209 -207
-209 -208
207 208 209
-210 39
-210 40
-39 -40 210
-211 206
-211 -209
-206 209 211
-212 -206
-212 209
206 -209 212
-213 -211
-213 -212
211 212 213
-214 -206
-214 -209
206 209 214
-215 -210
-215 -214
210 214 215
-216 -40
-216 41
40 -41 216
-217 40
-217 -41
-40 41 217
-218 -216
-218 -217
216 217 218
-219 40
-219 41
-40 -41 219
-220 215
-220 -218
-215 218 220
-221 -215
-221 218
215 -218 221
-222 -220
-222 -221
220 221 222
-223 -215
-223 -218
215 218 223
-224 -219
-224 -223
219 223 224
-225 -41
-225 42
41 -42 225
-226 41
-226 -42
-41 42 226
-227 -225
-227 -226
225 226 227
-228 41
-228 42
-41 -42 228
-229 224
-229 -227
-224 227 229
-230 -224
-230 227
224 -227 230
-231 -229
-231 -230
229 230 231
-232 -224
-232 -227
224 227 232
-233 -228
-233 -232
228 232 233
-234 -42
-234 43
42 -43 234
-235 42
-235 -43
-42 43 235
-236 -234
-236 -235
234 235 236
-237 42
-237 43
-42 -43 237
-238 233
-238 -236
-233 236 238
-239 -233
-239 236
233 -236 239
-240 -238
-240 -239
238 239 240
-241 -233
-241 -236
233 236 241
-242 -237
-242 -241
237 241 242
-243 -43
-243 44
43 -44 243
-244 43
-244 -44
-43 44 244
-245 -243
-245 -244
243 244 245
-246 43
-246 44
-43 -44 246
-247 242
-247 -245
-242 245 247
-248 -242
-248 245
242 -245 248
-249 -247
-249 -248
247 248 249
-250 -242
-250 -245
242 245 250
-251 -246
-251 -250
246 250 251
-252 -44
-252 45
44 -45 252
-253 44
-253 -45
-44 45 253
-254 -252
-254 -253
252 253 254
-255 44
-255 45
-44 -45 255
-256 251
-256 -254
-251 254 256
-257 -251
-257 254
251 -254 257
-258 -256
-258 -257
256 257 258
-259 -251
-259 -254
251 254 259
-260 -255
-260 -259
255 259 260
-261 -45
-261 46
45 -46 261
-262 45
-262 -46
-45 46 262
-263 -261
-263 -262
261 262 263
-264 45
-264 46
-45 -46 264
-265 260
-265 -263
-260 263 265
-266 -260
-266 263
260 -263 266
-267 -265
-267 -266
265 266 267
-268 -260
-268 -263
260 263 268
-269 -264
-269 -268
264 268 269
-270 -46
-270 47
46 -47 270
-271 46
-271 -47
-46 47 271
-272 -270
-272 -271
270 271 272
-273 46
-273 47
-46 -47 273
-274 269
-274 -272
-269 272 274
-275 -269
-275 272
269 -272 275
-276 -274
-276 -275
274 275 276
-277 -269
-277 -272
269 272 277
-278 -273
-278 -277
273 277 278
-279 -47
-279 48
47 -48 279
-280 47
-280 -48
-47 48 280
-281 -279
-281 -280
279 280 281
-282 47
-282 48
-47 -48 282
-283 278
-283 -281
-278 281 283
-284 -278
-284 281
278 -281 284
-285 -283
-285 -284
283 284 285
-286 -278
-286 -281
278 281 286
-287 -282
-287 -286
282 286 287
-288 -48
-288 49
48 -49 288
-289 48
-289 -49
-48 49 289
-290 -288
-290 -289
288 289 290
-291 48
-291 49
-48 -49 291
-292 287
-292 -290
-287 290 292
-293 -287
-293 290
287 -290 293
-294 -292
-294 -293
292 293 294
-295 -287
-295 -290
287 290 295
-296 -291
-296 -295
291 295 296
-297 -49
-297 50
49 -50 297
-298 49
-298 -50
-49 50 298
-299 -297
-299 -298
297 298 299
-300 49
-300 50
-49 -50 300
-301 296
-301 -299
-296 299 301
-302 -296
-302 299
296 -299 302
-303 -301
-303 -302
301 302 303
-304 -296
-304 -299
296 299 304
-305 -300
-305 -304
300 304 305
-306 -50
-306 51
50 -51 306
-307 50
-307 -51
-50 51 307
-308 -306
-308 -307
306 307 308
-309 50
-309 51
-50 -51 309
-310 305
-310 -308
-305 308 310
-311 -305
-311 308
305 -308 311
-312 -310
-312 -311
310 311 312
-313 -305
-313 -308
305 308 313
-314 -309
-314 -313
309 313 314
-315 -51
-315 52
51 -52 315
-316 51
-316 -52
-51 52 316
-317 -315
-317 -316
315 316 317
-318 51
-318 52
-51 -52 318
-319 314
-319 -317
-314 317 319
-320 -314
-320 317
314 -317 320
-321 -319
-321 -320
319 320 321
-322 -314
-322 -317
314 317 322
-323 -318
-323 -322
318 322 323
-324 -52
-324 53
52 -53 324
-325 52
-325 -53
-52 53 325
-326 -324
-326 -325
324 325 326
-327 52
-327 53
-52 -53 327
-328 323
-328 -326
-323 326 328
-329 -323
-329 326
323 -326 329
-330 -328
-330 -329
328 329 330
-331 -323
-331 -326
323 326 331
-332 -327
-332 -331
327 331 332
-333 25
-333 -87
-25 87 333
-334 -25
-334 27
25 -27 334
-335 -333
-335 -334
333 334 335
-336 25
-336 -96
-25 96 336
-337 -25
-337 28
25 -28 337
-338 -336
-338 -337
336 337 338
-339 25
-339 -105
-25 105 339
-340 -25
-340 29
25 -29 340
-341 -339
-341 -340
339 340 341
-342 25
-342 -114
-25 114 342
-343 -25
-343 30
25 -30 343
-344 -342
-344 -343
342 343 344
-345 25
-345 -123
-25 123 345
-346 -25
-346 31
25 -31 346
-347 -345
-347 -346
345 346 347
-348 25
-348 -132
-25 132 348
-349 -25
-349 32
25 -32 349
-350 -348
-350 -349
348 349 350
-351 25
-351 -141
-25 141 351
-352 -25
-352 33
25 -33 352
-353 -351
-353 -352
351 352 353
-354 25
-354 -150
-25 150 354
-355 -25
-355 34
25 -34 355
-356 -354
-356 -355
354 355 356
-357 25
-357 -159
-25 159 357
-358 -25
-358 35
25 -35 358
-359 -357
-359 -358
357 358 359
-360 25
-360 -168
-25 168 360
-361 -25
-361 36
25 -36 361
-362 -360
-362 -361
360 361 362
-363 25
-363 -177
-25 177 363
-364 -25
-364 37
25 -37 364
-365 -363
-365 -364
363 364 365
-366 25
-366 -186
-25 186 366
-367 -25
-367 38
25 -38 367
-368 -366
-368 -367
366 367 368
-369 25
-369 -195
-25 195 369
-370 -25
-370 39
25 -39 370
-371 -369
-371 -370
369 370 371
-372 25
-372 -204
-25 204 372
-373 -25
-373 40
25 -40 373
-374 -372
-374 -373
372 373 374
-375 25
-375 -213
-25 213 375
-376 -25
-376 41
25 -41 376
-377 -375
-377 -376
375 376 377
-378 25
-378 -222
-25 222 378
-379 -25
-379 42
25 -42 379
-380 -378
-380 -379
378 379 380
-381 25
-381 -231
-25 231 381
-382 -25
-382 43
25 -43 382
-383 -381
-383 -382
381 382 383
-384 25
-384 -240
-25 240 384
-385 -25
-385 44
25 -44 385
-386 -384
-386 -385
384 385 386
-387 25
-387 -249
-25 249 387
-388 -25
-388 45
25 -45 388
-389 -387
-389 -388
387 388 389
-390 25
-390 -258
-25 258 390
-391 -25
-391 46
25 -46 391
-392 -390
-392 -391
390 391 392
-393 25
-393 -267
-25 267 393
-394 -25
-394 47
25 -47 394
-395 -393
-395 -394
393 394 395
-396 25
-396 -276
-25 276 396
-397 -25
-397 48
25 -48 397
-398 -396
-398 -397
396 397 398
-399 25
-399 -285
-25 285 399
-400 -25
-400 49
25 -49 400
-401 -399
-401 -400
399 400 401
-402 25
-402 -294
-25 294 402
-403 -25
-403 50
25 -50 403
-404 -402
-404 -403
402 403 404
-405 25
-405 -303
-25 303 405
-406 -25
-406 51
25 -51 406
-407 -405
-407 -406
405 406 407
-408 25
-408 -312
-25 312 408
-409 -25
-409 52
25 -52 409
-410 -408
-410 -409
408 409 410
-411 25
-411 -321
-25 321 411
-412 -25
-412 53
25 -53 412
-413 -411
-413 -412
411 412 413
-414 25
-414 -330
-25 330 414
-415 1
-415 80
-1 -80 415
-416 -80
-416 81
80 -81 416
-417 -415
-417 -416
415 416 417
-418 2
-418 80
-2 -80 418
-419 -80
-419 -335
80 335 419
-420 -418
-420 -419
418 419 420
-421 3
-421 80
-3 -80 421
-422 -80
-422 -338
80 338 422
-423 -421
-423 -422
421 422 423
-424 4
-424 80
-4 -80 424
-425 -80
-425 -341
80 341 425
-426 -424
-426 -425
424 425 426
-427 5
-427 80
-5 -80 427
-428 -80
-428 -344
80 344 428
-429 -427
-429 -428
427 428 429
-430 6
-430 80
-6 -80 430
-431 -80
-431 -347
80 347 431
-432 -430
-432 -431
430 431 432
-433 7
-433 80
-7 -80 433
-434 -80
-434 -350
80 350 434
-435 -433
-435 -434
433 434 435
-436 8
-436 80
-8 -80 436
-437 -80
-437 -353
80 353 437
-438 -436
-438 -437
436 437 438
-439 9
-439 80
-9 -80 439
-440 -80
-440 -356
80 356 440
-441 -439
-441 -440
439 440 441
-442 10
-442 80
-10 -80 442
-443 -80
-443 -359
80 359 443
-444 -442
-444 -443
442 443 444
-445 11
-445 80
-11 -80 445
-446 -80
-446 -362
80 362 446
-447 -445
-447 -446
445 446 447
-448 12
-448 80
-12 -80 448
-449 -80
-449 -365
80 365 449
-450 -448
-450 -449
448 449 450
-451 13
-451 80
-13 -80 451
-452 -80
-452 -368
80 368 452
-453 -451
-453 -452
451 452 453
-454 14
-454 80
-14 -80 454
-455 -80
-455 -371
80 371 455
-456 -454
-456 -455
454 455 456
-457 15
-457 80
-15 -80 457
-458 -80
-458 -374
80 374 458
-459 -457
-459 -458
457 458 459
-460 16
-460 80
-16 -80 460
-461 -80
-461 -377
80 377 461
-462 -460
-462 -461
460 461 462
-463 17
-463 80
-17 -80 463
-464 -80
-464 -380
80 380 464
-465 -463
-465 -464
463 464 465
-466 18
-466 80
-18 -80 466
-467 -80
-467 -383
80 383 467
-468 -466
-468 -467
466 467 468
-469 19
-469 80
-19 -80 469
-470 -80
-470 -386
80 386 470
-471 -469
-471 -470
469 470 471
-472 20
-472 80
-20 -80 472
-473 -80
-473 -389
80 389 473
-474 -472
-474 -473
472 473 474
-475 21
-475 80
-21 -80 475
-476 -80
-476 -392
80 392 476
-477 -475
-477 -476
475 476 477
-478 22
-478 80
-22 -80 478
-479 -80
-479 -395
80 395 479
-480 -478
-480 -479
478 479 480
-481 23
-481 80
-23 -80 481
-482 -80
-482 -398
80 398 482
-483 -481
-483 -482
481 482 483
-484 24
-484 80
-24 -80 484
-485 -80
-485 -401
80 401 485
-486 -484
-486 -485
484 485 486
-487 -80
-487 -404
80 404 487
-488 -80
-488 -407
80 407 488
-489 -80
-489 -410
80 410 489
-490 -80
-490 -413
80 413 490
-491 -80
-491 414
80 -414 491
-492 -53
-492 332
53 -332 492
-493 25
-493 -492
-25 492 493
493
